(set-info :source |printed by MathSAT|)
(declare-fun |!{$(in_main#0)<N>}| () Int)
(declare-fun |!{$(in_main#0)<N>}.next| () Int)
(declare-fun |!{$(in_main#0)<&array>}| () Int)
(declare-fun |!{$(in_main#0)<&array>}.next| () Int)
(declare-fun |!{$(in_main#0)<k>}| () Int)
(declare-fun |!{$(in_main#0)<k>}.next| () Int)
(declare-fun |!{$(in_main#0)<k#1>}| () Int)
(declare-fun |!{$(in_main#0)<k#1>}.next| () Int)
(declare-fun |!{%memaddr}| () Int)
(declare-fun |!{%memaddr}.next| () Int)
(declare-fun |!{%mem.0}| () (Array Int Int))
(declare-fun |!{%mem.0}.next| () (Array Int Int))
(declare-fun |!{$(in_main#0)<$(in___VERIFIER_nondet_int#1)<h#<__VERIFIER_nondet_int.return>>>}| () Int)
(declare-fun |!{$(in_main#0)<$(in___VERIFIER_nondet_int#3)<h#<__VERIFIER_nondet_int.return>>>}| () Int)
(declare-fun !pc () Int)
(declare-fun !pc.next () Int)
(declare-fun |%{$(in_main#0)<k#1>}#1| () Int)
(declare-fun |%{%mem.0}#3| () (Array Int Int))
(define-fun .def_45 () Int (! !pc :next !pc.next))
(define-fun .def_48 () Bool (! (= .def_45 2) :init true))
(define-fun .def_183 () Bool (= .def_45 47))
(define-fun .def_126 () Bool (= !pc.next 103))
(define-fun .def_186 () Bool (and .def_126 .def_183))
(define-fun .def_179 () Bool (= |!{%mem.0}.next| |%{%mem.0}#3|))
(define-fun .def_176 () Bool (= |!{$(in_main#0)<k#1>}.next| 0))
(define-fun .def_10 () Int (! |!{$(in_main#0)<&array>}| :next |!{$(in_main#0)<&array>}.next|))
(define-fun .def_93 () Bool (= .def_10 |!{$(in_main#0)<&array>}.next|))
(define-fun .def_8 () Int (! |!{$(in_main#0)<N>}| :next |!{$(in_main#0)<N>}.next|))
(define-fun .def_91 () Bool (= .def_8 |!{$(in_main#0)<N>}.next|))
(define-fun .def_103 () Bool (and .def_91 .def_93))
(define-fun .def_12 () Int (! |!{$(in_main#0)<k>}| :next |!{$(in_main#0)<k>}.next|))
(define-fun .def_95 () Bool (= .def_12 |!{$(in_main#0)<k>}.next|))
(define-fun .def_104 () Bool (and .def_95 .def_103))
(define-fun .def_177 () Bool (and .def_104 .def_176))
(define-fun .def_16 () Int (! |!{%memaddr}| :next |!{%memaddr}.next|))
(define-fun .def_99 () Bool (= .def_16 |!{%memaddr}.next|))
(define-fun .def_178 () Bool (and .def_99 .def_177))
(define-fun .def_180 () Bool (and .def_178 .def_179))
(define-fun .def_18 () (Array Int Int) (! |!{%mem.0}| :next |!{%mem.0}.next|))
(define-fun .def_163 () Bool (= .def_18 |%{%mem.0}#3|))
(define-fun .def_142 () Bool (<= .def_8 0))
(define-fun .def_164 () Bool (and .def_142 .def_163))
(define-fun .def_147 () Int (+ .def_10 1))
(define-fun .def_144 () (Array Int Int) (store .def_18 .def_10 0))
(define-fun .def_148 () (Array Int Int) (store .def_144 .def_147 0))
(define-fun .def_156 () Bool (= .def_148 |%{%mem.0}#3|))
(define-fun .def_145 () Bool (<= .def_8 1))
(define-fun .def_146 () Bool (not .def_145))
(define-fun .def_158 () Bool (and .def_146 .def_156))
(define-fun .def_155 () Bool (= .def_144 |%{%mem.0}#3|))
(define-fun .def_157 () Bool (and .def_145 .def_155))
(define-fun .def_159 () Bool (or .def_157 .def_158))
(define-fun .def_143 () Bool (not .def_142))
(define-fun .def_160 () Bool (and .def_143 .def_159))
(define-fun .def_165 () Bool (or .def_160 .def_164))
(define-fun .def_181 () Bool (and .def_165 .def_180))
(define-fun .def_137 () Bool (<= .def_8 .def_12))
(define-fun .def_182 () Bool (and .def_137 .def_181))
(define-fun .def_187 () Bool (and .def_182 .def_186))
(define-fun .def_77 () Bool (= !pc.next 47))
(define-fun .def_184 () Bool (and .def_77 .def_183))
(define-fun .def_139 () Int (+ .def_10 .def_12))
(define-fun .def_140 () (Array Int Int) (store .def_18 .def_139 |!{$(in_main#0)<$(in___VERIFIER_nondet_int#3)<h#<__VERIFIER_nondet_int.return>>>}|))
(define-fun .def_173 () Bool (= |!{%mem.0}.next| .def_140))
(define-fun .def_167 () Int (* (- 1) |!{$(in_main#0)<k>}.next|))
(define-fun .def_168 () Int (+ .def_12 .def_167))
(define-fun .def_169 () Bool (= .def_168 (- 1)))
(define-fun .def_170 () Bool (and .def_103 .def_169))
(define-fun .def_14 () Int (! |!{$(in_main#0)<k#1>}| :next |!{$(in_main#0)<k#1>}.next|))
(define-fun .def_97 () Bool (= .def_14 |!{$(in_main#0)<k#1>}.next|))
(define-fun .def_171 () Bool (and .def_97 .def_170))
(define-fun .def_172 () Bool (and .def_99 .def_171))
(define-fun .def_174 () Bool (and .def_172 .def_173))
(define-fun .def_138 () Bool (not .def_137))
(define-fun .def_175 () Bool (and .def_138 .def_174))
(define-fun .def_185 () Bool (and .def_175 .def_184))
(define-fun .def_188 () Bool (or .def_185 .def_187))
(define-fun .def_130 () Bool (= !pc.next 0))
(define-fun .def_121 () Bool (= .def_45 103))
(define-fun .def_131 () Bool (and .def_121 .def_130))
(define-fun .def_80 () Bool (<= .def_8 .def_14))
(define-fun .def_114 () Bool (and .def_80 .def_91))
(define-fun .def_115 () Bool (and .def_93 .def_114))
(define-fun .def_116 () Bool (and .def_95 .def_115))
(define-fun .def_117 () Bool (and .def_97 .def_116))
(define-fun .def_118 () Bool (and .def_99 .def_117))
(define-fun .def_73 () Bool (= .def_18 |!{%mem.0}.next|))
(define-fun .def_119 () Bool (and .def_73 .def_118))
(define-fun .def_132 () Bool (and .def_119 .def_131))
(define-fun .def_127 () Bool (and .def_121 .def_126))
(define-fun .def_106 () Int (* (- 1) |!{$(in_main#0)<k#1>}.next|))
(define-fun .def_107 () Int (+ .def_14 .def_106))
(define-fun .def_108 () Bool (= .def_107 (- 1)))
(define-fun .def_109 () Bool (and .def_104 .def_108))
(define-fun .def_110 () Bool (and .def_99 .def_109))
(define-fun .def_111 () Bool (and .def_73 .def_110))
(define-fun .def_82 () Int (+ .def_10 .def_14))
(define-fun .def_83 () Int (select .def_18 .def_82))
(define-fun .def_84 () Bool (= .def_83 0))
(define-fun .def_85 () Int (ite .def_84 1 0))
(define-fun .def_86 () Bool (= .def_85 0))
(define-fun .def_87 () Bool (not .def_86))
(define-fun .def_112 () Bool (and .def_87 .def_111))
(define-fun .def_81 () Bool (not .def_80))
(define-fun .def_113 () Bool (and .def_81 .def_112))
(define-fun .def_128 () Bool (and .def_113 .def_127))
(define-fun .def_123 () Bool (= !pc.next 123))
(define-fun .def_124 () Bool (and .def_121 .def_123))
(define-fun .def_92 () Bool (and .def_86 .def_91))
(define-fun .def_94 () Bool (and .def_92 .def_93))
(define-fun .def_96 () Bool (and .def_94 .def_95))
(define-fun .def_98 () Bool (and .def_96 .def_97))
(define-fun .def_100 () Bool (and .def_98 .def_99))
(define-fun .def_101 () Bool (and .def_73 .def_100))
(define-fun .def_102 () Bool (and .def_81 .def_101))
(define-fun .def_125 () Bool (and .def_102 .def_124))
(define-fun .def_129 () Bool (or .def_125 .def_128))
(define-fun .def_133 () Bool (or .def_129 .def_132))
(define-fun .def_78 () Bool (and .def_48 .def_77))
(define-fun .def_71 () Bool (= |!{%memaddr}.next| 2))
(define-fun .def_69 () Bool (= |!{$(in_main#0)<k#1>}.next| |%{$(in_main#0)<k#1>}#1|))
(define-fun .def_67 () Bool (= |!{$(in_main#0)<k>}.next| 0))
(define-fun .def_65 () Bool (= |!{$(in_main#0)<&array>}.next| 1))
(define-fun .def_64 () Bool (= |!{$(in_main#0)<N>}.next| |!{$(in_main#0)<$(in___VERIFIER_nondet_int#1)<h#<__VERIFIER_nondet_int.return>>>}|))
(define-fun .def_66 () Bool (and .def_64 .def_65))
(define-fun .def_68 () Bool (and .def_66 .def_67))
(define-fun .def_70 () Bool (and .def_68 .def_69))
(define-fun .def_72 () Bool (and .def_70 .def_71))
(define-fun .def_74 () Bool (and .def_72 .def_73))
(define-fun .def_59 () Bool (<= |!{$(in_main#0)<$(in___VERIFIER_nondet_int#1)<h#<__VERIFIER_nondet_int.return>>>}| 0))
(define-fun .def_60 () Bool (not .def_59))
(define-fun .def_61 () Int (ite .def_60 1 0))
(define-fun .def_62 () Bool (= .def_61 0))
(define-fun .def_63 () Bool (not .def_62))
(define-fun .def_75 () Bool (and .def_63 .def_74))
(define-fun .def_79 () Bool (and .def_75 .def_78))
(define-fun .def_134 () Bool (or .def_79 .def_133))
(define-fun .def_189 () Bool (! (or .def_134 .def_188) :trans true))
(define-fun .def_135 () Bool (= .def_45 123))
(define-fun .def_190 () Bool (! (not .def_135) :invar-property 0 :invar-property-name ||))
(assert true)
